45
1 0 1
2 0 1
3 0 1
4 1 1
4 3 1
5 0 1
5 1 1
6 1 1
6 3 1
6 4 1
7 2 1
7 4 1
8 2 1
8 3 1
8 5 1
9 5 1
10 3 1
10 5 1
10 9 1
11 0 1
11 4 1
11 5 1
11 6 1
12 0 1
12 1 1
12 2 1
12 3 1
12 4 1
12 7 1
12 8 1
12 11 1
13 0 1
13 1 1
13 4 1
13 8 1
13 11 1
13 12 1
14 0 1
14 1 1
14 2 1
14 4 1
14 8 1
14 10 1
14 11 1
15 0 1
15 1 1
15 3 1
15 4 1
15 5 1
15 6 1
15 8 1
15 10 1
15 11 1
15 12 1
15 13 1
15 14 1
16 0 1
16 3 1
16 5 1
16 6 1
16 7 1
16 8 1
16 9 1
16 12 1
16 13 1
16 14 1
16 15 1
17 1 1
17 2 1
17 4 1
17 8 1
17 11 1
17 12 1
17 14 1
17 15 1
18 0 1
18 2 1
18 3 1
18 7 1
18 8 1
18 9 1
18 10 1
18 12 1
18 13 1
18 15 1
19 0 1
19 5 1
19 6 1
19 9 1
19 13 1
19 15 1
19 17 1
19 18 1
20 0 1
20 1 1
20 2 1
20 8 1
20 14 1
20 16 1
20 17 1
20 18 1
20 19 1
21 4 1
21 6 1
21 7 1
21 8 1
21 11 1
21 14 1
21 15 1
21 19 1
21 20 1
22 0 1
22 1 1
22 2 1
22 10 1
22 13 1
22 15 1
22 19 1
22 21 1
23 1 1
23 2 1
23 3 1
23 6 1
23 7 1
23 8 1
23 10 1
23 12 1
23 13 1
23 15 1
23 17 1
23 21 1
24 0 1
24 3 1
24 4 1
24 6 1
24 9 1
24 10 1
24 15 1
24 16 1
24 19 1
24 20 1
25 0 1
25 1 1
25 2 1
25 6 1
25 7 1
25 10 1
25 16 1
25 17 1
25 19 1
25 20 1
26 1 1
26 2 1
26 3 1
26 4 1
26 6 1
26 7 1
26 9 1
26 10 1
26 11 1
26 12 1
26 13 1
26 14 1
26 18 1
26 22 1
27 0 1
27 2 1
27 3 1
27 6 1
27 8 1
27 9 1
27 13 1
27 15 1
27 16 1
27 20 1
27 21 1
27 22 1
27 23 1
27 24 1
27 25 1
28 0 1
28 2 1
28 4 1
28 5 1
28 9 1
28 10 1
28 12 1
28 14 1
28 15 1
28 16 1
28 18 1
28 19 1
28 20 1
28 23 1
28 26 1
28 27 1
29 0 1
29 2 1
29 3 1
29 4 1
29 5 1
29 6 1
29 9 1
29 11 1
29 12 1
29 13 1
29 14 1
29 16 1
29 17 1
29 18 1
29 21 1
29 22 1
29 26 1
30 2 1
30 3 1
30 4 1
30 5 1
30 6 1
30 7 1
30 8 1
30 10 1
30 12 1
30 14 1
30 18 1
30 20 1
30 23 1
30 24 1
30 28 1
31 0 1
31 1 1
31 3 1
31 5 1
31 7 1
31 8 1
31 9 1
31 10 1
31 11 1
31 13 1
31 14 1
31 15 1
31 16 1
31 17 1
31 19 1
31 20 1
31 21 1
31 24 1
31 26 1
31 27 1
32 2 1
32 3 1
32 6 1
32 7 1
32 8 1
32 10 1
32 12 1
32 14 1
32 15 1
32 17 1
32 18 1
32 19 1
32 20 1
32 22 1
32 23 1
32 24 1
32 25 1
32 27 1
32 28 1
32 29 1
32 31 1
33 1 1
33 4 1
33 5 1
33 8 1
33 9 1
33 16 1
33 18 1
33 19 1
33 21 1
33 22 1
33 23 1
33 24 1
33 28 1
33 29 1
34 0 1
34 1 1
34 2 1
34 4 1
34 5 1
34 6 1
34 7 1
34 9 1
34 11 1
34 14 1
34 16 1
34 17 1
34 18 1
34 21 1
34 22 1
34 24 1
34 25 1
34 28 1
34 32 1
34 33 1
35 2 1
35 3 1
35 6 1
35 8 1
35 10 1
35 11 1
35 12 1
35 17 1
35 18 1
35 20 1
35 21 1
35 25 1
35 27 1
35 29 1
35 31 1
35 32 1
35 33 1
36 0 1
36 1 1
36 4 1
36 8 1
36 9 1
36 12 1
36 14 1
36 15 1
36 17 1
36 18 1
36 20 1
36 21 1
36 24 1
36 26 1
36 28 1
36 29 1
36 33 1
36 35 1
37 7 1
37 9 1
37 10 1
37 20 1
37 21 1
37 23 1
37 28 1
37 31 1
37 32 1
37 33 1
37 36 1
38 0 1
38 1 1
38 2 1
38 3 1
38 4 1
38 5 1
38 7 1
38 11 1
38 16 1
38 17 1
38 18 1
38 21 1
38 22 1
38 23 1
38 24 1
38 25 1
38 26 1
38 31 1
38 34 1
38 35 1
38 36 1
39 0 1
39 1 1
39 4 1
39 5 1
39 6 1
39 12 1
39 15 1
39 17 1
39 18 1
39 20 1
39 22 1
39 26 1
39 27 1
39 28 1
39 29 1
39 33 1
39 35 1
39 38 1
40 0 1
40 3 1
40 7 1
40 8 1
40 9 1
40 13 1
40 14 1
40 15 1
40 19 1
40 20 1
40 23 1
40 27 1
40 31 1
40 32 1
40 33 1
40 34 1
40 35 1
40 36 1
40 37 1
40 38 1
41 1 1
41 2 1
41 3 1
41 4 1
41 5 1
41 6 1
41 7 1
41 8 1
41 10 1
41 14 1
41 17 1
41 21 1
41 22 1
41 24 1
41 25 1
41 26 1
41 29 1
41 30 1
41 32 1
42 2 1
42 4 1
42 5 1
42 7 1
42 8 1
42 9 1
42 10 1
42 11 1
42 13 1
42 14 1
42 15 1
42 17 1
42 18 1
42 19 1
42 21 1
42 25 1
42 27 1
42 29 1
42 31 1
42 32 1
42 33 1
42 34 1
42 36 1
42 38 1
42 39 1
42 41 1
43 0 1
43 2 1
43 4 1
43 7 1
43 8 1
43 9 1
43 10 1
43 12 1
43 15 1
43 18 1
43 20 1
43 22 1
43 23 1
43 26 1
43 28 1
43 30 1
43 32 1
43 33 1
43 35 1
43 39 1
43 42 1
44 0 1
44 1 1
44 2 1
44 3 1
44 5 1
44 6 1
44 9 1
44 10 1
44 11 1
44 12 1
44 16 1
44 18 1
44 19 1
44 21 1
44 22 1
44 24 1
44 27 1
44 28 1
44 29 1
44 30 1
44 32 1
44 33 1
44 34 1
44 38 1
44 39 1
44 40 1
44 41 1
44 42 1
